Maximize
 obj: 1 VAR71
Subject To
 c1: 1 VAR6 - 0.594442 VAR1 + 0.0983411 VAR2 + 0.0702592 VAR3 - 0.502192 VAR4 + 0.475897 VAR5 + 0.10813625972070573 VAR7 <= 0.30379125972070575
 c2: 1 VAR6 - 0.594442 VAR1 + 0.0983411 VAR2 + 0.0702592 VAR3 - 0.502192 VAR4 + 0.475897 VAR5 >= 0.195655
 c3: 1 VAR6 - 0.09278415086751646 VAR7 <= 0
 c4: 1 VAR6 >= 0
 c5: 1 VAR8 - 0.276301 VAR1 + 0.329854 VAR2 + 0.00328522 VAR3 - 0.462807 VAR4 + 0.545738 VAR5 + 0.16144894582898014 VAR9 <= 0.22268534582898014
 c6: 1 VAR8 - 0.276301 VAR1 + 0.329854 VAR2 + 0.00328522 VAR3 - 0.462807 VAR4 + 0.545738 VAR5 >= 0.0612364
 c7: 1 VAR8 - 0.04795707027888699 VAR9 <= 0
 c8: 1 VAR8 >= 0
 c9: 1 VAR10 - 0.00760958 VAR1 + 0.270382 VAR2 - 0.39758 VAR3 - 0.420578 VAR4 + 0.54542 VAR5 + 0.008252053473642884 VAR11 <= -0.044729846526357114
 c10: 1 VAR10 - 0.00760958 VAR1 + 0.270382 VAR2 - 0.39758 VAR3 - 0.420578 VAR4 + 0.54542 VAR5 >= -0.0529819
 c11: 1 VAR10 - 0.1927812183224658 VAR11 <= 0
 c12: 1 VAR10 >= 0
 c13: 1 VAR12 + 0.601768 VAR1 + 0.00524311 VAR2 - 0.0112414 VAR3 + 0.561621 VAR4 - 0.403576 VAR5 + 0.18428395391052294 VAR13 <= -0.025418046089477064
 c14: 1 VAR12 + 0.601768 VAR1 + 0.00524311 VAR2 - 0.0112414 VAR3 + 0.561621 VAR4 - 0.403576 VAR5 >= -0.209702
 c15: 1 VAR12 - 0.011925805398723344 VAR13 <= 0
 c16: 1 VAR12 >= 0
 c17: 1 VAR14 - 0.350956 VAR1 - 0.303847 VAR2 + 0.00810014 VAR3 - 0.611235 VAR4 + 0.666433 VAR5 + 0.15914867599958385 VAR15 <= 0.26332367599958384
 c18: 1 VAR14 - 0.350956 VAR1 - 0.303847 VAR2 + 0.00810014 VAR3 - 0.611235 VAR4 + 0.666433 VAR5 >= 0.104175
 c19: 1 VAR14 - 0.1039887747599636 VAR15 <= 0
 c20: 1 VAR14 >= 0
 c21: 1 VAR16 + 0.485394 VAR1 - 0.078608 VAR2 - 0.0306687 VAR3 + 0.509238 VAR4 - 0.616939 VAR5 + 0.011244874379811254 VAR17 <= -0.08975912562018874
 c22: 1 VAR16 + 0.485394 VAR1 - 0.078608 VAR2 - 0.0306687 VAR3 + 0.509238 VAR4 - 0.616939 VAR5 >= -0.101004
 c23: 1 VAR16 - 0.21811130479903781 VAR17 <= 0
 c24: 1 VAR16 >= 0
 c25: 1 VAR18 - 0.0284615 VAR1 - 0.316779 VAR2 - 0.137528 VAR3 - 0.117523 VAR4 + 0.265023 VAR5 + 0.03771646948149253 VAR19 <= 0.04106495948149253
 c26: 1 VAR18 - 0.0284615 VAR1 - 0.316779 VAR2 - 0.137528 VAR3 - 0.117523 VAR4 + 0.265023 VAR5 >= 0.00334849
 c27: 1 VAR18 - 0.045894853348493886 VAR19 <= 0
 c28: 1 VAR18 >= 0
 c29: 1 VAR20 + 1.10284 VAR1 - 0.0068186 VAR2 - 0.0177087 VAR3 - 0.175059 VAR4 + 0.413159 VAR5 + 0.11762080558331084 VAR21 <= -0.18386619441668917
 c30: 1 VAR20 + 1.10284 VAR1 - 0.0068186 VAR2 - 0.0177087 VAR3 - 0.175059 VAR4 + 0.413159 VAR5 >= -0.301487
 c31: 1 VAR20 - 0.005760564044675315 VAR21 <= 0
 c32: 1 VAR20 >= 0
 c33: 1 VAR22 - 0.48251278698519995 VAR1 + 3.0160069201005903 VAR2 - 0.9900083099837771 VAR3 + 0.13655870324803993 VAR4 - 0.11270857638200998 VAR5 - 0.0963794 VAR6 - 0.293888 VAR8 - 0.173553 VAR10 - 0.137233 VAR12 + 0.374764 VAR14 + 0.0283382 VAR16 + 0.0484042 VAR18 + 0.606074 VAR20 + 0.07248524337136725 VAR23 <= -0.28018774204936275
 c34: 1 VAR22 - 0.48251278698519995 VAR1 + 3.0160069201005903 VAR2 - 0.9900083099837771 VAR3 + 0.13655870324803993 VAR4 - 0.11270857638200998 VAR5 - 0.0963794 VAR6 - 0.293888 VAR8 - 0.173553 VAR10 - 0.137233 VAR12 + 0.374764 VAR14 + 0.0283382 VAR16 + 0.0484042 VAR18 + 0.606074 VAR20 >= -0.35267298542073
 c35: 1 VAR22 - 0.049268267664144494 VAR23 <= 0
 c36: 1 VAR22 >= 0
 c37: 1 VAR24 - 0.28208380738818006 VAR1 - 0.5972954467938519 VAR2 + 0.23146397363066618 VAR3 - 0.0676115795254199 VAR4 - 1.5066596803318202 VAR5 - 0.592534 VAR6 + 0.422336 VAR8 + 0.051959 VAR10 + 0.259675 VAR12 + 0.25557 VAR14 - 0.659557 VAR16 + 0.399279 VAR18 + 0.461619 VAR20 + 0.09364310701810596 VAR25 <= -0.252402513344374
 c38: 1 VAR24 - 0.28208380738818006 VAR1 - 0.5972954467938519 VAR2 + 0.23146397363066618 VAR3 - 0.0676115795254199 VAR4 - 1.5066596803318202 VAR5 - 0.592534 VAR6 + 0.422336 VAR8 + 0.051959 VAR10 + 0.259675 VAR12 + 0.25557 VAR14 - 0.659557 VAR16 + 0.399279 VAR18 + 0.461619 VAR20 >= -0.34604562036248
 c39: 1 VAR24 - 0.3762225255416034 VAR25 <= 0
 c40: 1 VAR24 >= 0
 c41: 1 VAR26 - 0.28970665438613996 VAR1 - 3.3101297837456203 VAR2 + 2.2256595237935533 VAR3 + 0.38008513655732 VAR4 - 0.24352759399029 VAR5 + 0.0639153 VAR6 - 0.466994 VAR8 + 0.0830008 VAR10 - 0.365324 VAR12 + 0.609965 VAR14 - 0.954131 VAR16 + 0.192038 VAR18 + 0.415445 VAR20 + 0.47058161287493827 VAR27 <= 1.4215908150086884
 c42: 1 VAR26 - 0.28970665438613996 VAR1 - 3.3101297837456203 VAR2 + 2.2256595237935533 VAR3 + 0.38008513655732 VAR4 - 0.24352759399029 VAR5 + 0.0639153 VAR6 - 0.466994 VAR8 + 0.0830008 VAR10 - 0.365324 VAR12 + 0.609965 VAR14 - 0.954131 VAR16 + 0.192038 VAR18 + 0.415445 VAR20 >= 0.9510092021337502
 c43: 1 VAR26 - 0.016603038419142013 VAR27 <= 0
 c44: 1 VAR26 >= 0
 c45: 1 VAR28 - 0.6476821286083959 VAR1 + 1.2320577758444595 VAR2 - 1.1086858801233777 VAR3 + 0.271859815461825 VAR4 - 0.309872394772568 VAR5 + 0.125432 VAR6 + 0.28097 VAR8 + 0.759073 VAR10 - 0.855165 VAR12 - 0.321835 VAR14 - 0.754511 VAR16 - 0.0386692 VAR18 + 0.272965 VAR20 + 0.2460140079929262 VAR29 <= -0.1637753458512757
 c46: 1 VAR28 - 0.6476821286083959 VAR1 + 1.2320577758444595 VAR2 - 1.1086858801233777 VAR3 + 0.271859815461825 VAR4 - 0.309872394772568 VAR5 + 0.125432 VAR6 + 0.28097 VAR8 + 0.759073 VAR10 - 0.855165 VAR12 - 0.321835 VAR14 - 0.754511 VAR16 - 0.0386692 VAR18 + 0.272965 VAR20 >= -0.4097893538442019
 c47: 1 VAR28 - 0.20837353938977965 VAR29 <= 0
 c48: 1 VAR28 >= 0
 c49: 1 VAR30 - 0.9550473064846113 VAR1 - 3.445072792507334 VAR2 + 1.335542734136681 VAR3 - 0.6273595150223626 VAR4 + 0.11577792047378895 VAR5 - 0.32676742357854005 VAR6 + 0.41048429249195006 VAR8 + 0.9975712726081402 VAR10 - 0.5021461367606501 VAR12 - 0.039481491711240047 VAR14 - 0.06486813652470004 VAR16 + 0.42234169700512 VAR18 + 0.8867521143544601 VAR20 - 0.0825228 VAR22 + 0.661348 VAR24 - 0.683429 VAR26 - 0.182885 VAR28 + 0.13466902967897865 VAR31 <= 1.0557395782553856
 c50: 1 VAR30 - 0.9550473064846113 VAR1 - 3.445072792507334 VAR2 + 1.335542734136681 VAR3 - 0.6273595150223626 VAR4 + 0.11577792047378895 VAR5 - 0.32676742357854005 VAR6 + 0.41048429249195006 VAR8 + 0.9975712726081402 VAR10 - 0.5021461367606501 VAR12 - 0.039481491711240047 VAR14 - 0.06486813652470004 VAR16 + 0.42234169700512 VAR18 + 0.8867521143544601 VAR20 - 0.0825228 VAR22 + 0.661348 VAR24 - 0.683429 VAR26 - 0.182885 VAR28 >= 0.9210705485764069
 c51: 1 VAR30 - 0.13358496537116948 VAR31 <= 0
 c52: 1 VAR30 >= 0
 c53: 1 VAR32 - 3.816607970668062 VAR1 - 1.537796555724618 VAR2 + 0.3834785962971939 VAR3 + 0.580862989050539 VAR4 - 0.3443753248123791 VAR5 + 1.2161855113134719 VAR6 + 0.27775851378406 VAR8 - 0.6434626930078838 VAR10 - 0.17849089840684004 VAR12 - 0.40075248248063394 VAR14 + 0.8309702185609601 VAR16 - 0.07106805283718018 VAR18 + 3.6345468396051093 VAR20 - 0.0407838 VAR22 + 0.219762 VAR24 + 0.174185 VAR26 - 0.346725 VAR28 + 0.27793726374423877 VAR33 <= 1.6734189152909444
 c54: 1 VAR32 - 3.816607970668062 VAR1 - 1.537796555724618 VAR2 + 0.3834785962971939 VAR3 + 0.580862989050539 VAR4 - 0.3443753248123791 VAR5 + 1.2161855113134719 VAR6 + 0.27775851378406 VAR8 - 0.6434626930078838 VAR10 - 0.17849089840684004 VAR12 - 0.40075248248063394 VAR14 + 0.8309702185609601 VAR16 - 0.07106805283718018 VAR18 + 3.6345468396051093 VAR20 - 0.0407838 VAR22 + 0.219762 VAR24 + 0.174185 VAR26 - 0.346725 VAR28 >= 1.3954816515467057
 c55: 1 VAR32 - 0.06103950011612036 VAR33 <= 0
 c56: 1 VAR32 >= 0
 c57: 1 VAR34 + 0.24066047328577256 VAR1 - 2.094533593005784 VAR2 + 1.625697056468841 VAR3 + 0.1126947252642032 VAR4 + 0.10701784580283524 VAR5 - 0.049077789750892005 VAR6 + 0.21173204953373903 VAR8 - 0.024086294942772972 VAR10 + 0.17017000464010001 VAR12 - 0.15802992740274008 VAR14 + 0.0016165371037700077 VAR16 + 0.050455870633795995 VAR18 + 0.021759228459823962 VAR20 - 0.0784712 VAR22 - 0.111879 VAR24 - 0.245123 VAR26 + 0.337503 VAR28 + 0.1002542584914391 VAR35 <= 0.8791500100691677
 c58: 1 VAR34 + 0.24066047328577256 VAR1 - 2.094533593005784 VAR2 + 1.625697056468841 VAR3 + 0.1126947252642032 VAR4 + 0.10701784580283524 VAR5 - 0.049077789750892005 VAR6 + 0.21173204953373903 VAR8 - 0.024086294942772972 VAR10 + 0.17017000464010001 VAR12 - 0.15802992740274008 VAR14 + 0.0016165371037700077 VAR16 + 0.050455870633795995 VAR18 + 0.021759228459823962 VAR20 - 0.0784712 VAR22 - 0.111879 VAR24 - 0.245123 VAR26 + 0.337503 VAR28 >= 0.7788957515777286
 c59: 1 VAR34 - 0.02851866974834527 VAR35 <= 0
 c60: 1 VAR34 >= 0
 c61: 1 VAR36 - 0.9840417741464014 VAR1 - 1.5439139024786217 VAR2 + 1.1469009653261233 VAR3 + 0.11998807474276477 VAR4 + 0.1561988251043807 VAR5 - 0.5807187062238298 VAR6 - 0.45490634951110004 VAR8 - 0.2932849272294801 VAR10 + 0.8388522222483299 VAR12 - 0.026974809272479937 VAR14 - 0.03271486815929505 VAR16 - 0.270380265190003 VAR18 + 0.8783687221086683 VAR20 + 0.395789 VAR22 - 0.038333 VAR24 - 0.137422 VAR26 - 0.240416 VAR28 + 0.08702284825521378 VAR37 <= 1.0053287435701836
 c62: 1 VAR36 - 0.9840417741464014 VAR1 - 1.5439139024786217 VAR2 + 1.1469009653261233 VAR3 + 0.11998807474276477 VAR4 + 0.1561988251043807 VAR5 - 0.5807187062238298 VAR6 - 0.45490634951110004 VAR8 - 0.2932849272294801 VAR10 + 0.8388522222483299 VAR12 - 0.026974809272479937 VAR14 - 0.03271486815929505 VAR16 - 0.270380265190003 VAR18 + 0.8783687221086683 VAR20 + 0.395789 VAR22 - 0.038333 VAR24 - 0.137422 VAR26 - 0.240416 VAR28 >= 0.9183058953149699
 c63: 1 VAR36 - 0.11223365466798185 VAR37 <= 0
 c64: 1 VAR36 >= 0
 c65: 1 VAR38 + 2.231946730569201 VAR1 + 1.3244748267936428 VAR2 - 2.3017497229811132 VAR3 - 0.15895033973237724 VAR4 - 0.24611295362409905 VAR5 - 0.44943126404567985 VAR6 - 0.37342744519971993 VAR8 + 0.29274806718279994 VAR10 + 0.9855641014442059 VAR12 + 1.195959774220964 VAR14 - 1.0476486949537602 VAR16 + 0.2311181331028101 VAR18 - 0.42242442207191605 VAR20 + 0.126893 VAR22 + 0.908595 VAR24 + 0.103003 VAR26 + 0.0716796 VAR28 + 0.2093687039001766 VAR39 <= -1.7215393087665785
 c66: 1 VAR38 + 2.231946730569201 VAR1 + 1.3244748267936428 VAR2 - 2.3017497229811132 VAR3 - 0.15895033973237724 VAR4 - 0.24611295362409905 VAR5 - 0.44943126404567985 VAR6 - 0.37342744519971993 VAR8 + 0.29274806718279994 VAR10 + 0.9855641014442059 VAR12 + 1.195959774220964 VAR14 - 1.0476486949537602 VAR16 + 0.2311181331028101 VAR18 - 0.42242442207191605 VAR20 + 0.126893 VAR22 + 0.908595 VAR24 + 0.103003 VAR26 + 0.0716796 VAR28 >= -1.930908012666755
 c67: 1 VAR38 - 0.1331375478554453 VAR39 <= 0
 c68: 1 VAR38 >= 0
 c69: 1 VAR40 + 0.0997256 VAR30 + 1.546607177254724 VAR1 + 6.6722882741539475 VAR2 - 5.346258075911796 VAR3 - 0.17354535459411866 VAR4 + 0.10886303777294296 VAR5 + 0.3611561850243618 VAR6 + 0.46521712001937476 VAR8 + 0.17235405395891154 VAR10 + 2.9335683498104914 VAR12 - 0.8728143774155122 VAR14 + 0.6217701964349923 VAR16 - 0.9793518189857555 VAR18 - 1.7936396693172065 VAR20 - 0.724326290683274 VAR22 - 0.9905145789398561 VAR24 - 0.20703377417739405 VAR26 + 0.12037225795581409 VAR28 + 0.230525 VAR32 - 1.9756 VAR34 - 0.35029 VAR36 - 0.16023 VAR38 + 0.5137580134622355 VAR41 <= -2.9500628636325676
 c70: 1 VAR40 + 0.0997256 VAR30 + 1.546607177254724 VAR1 + 6.6722882741539475 VAR2 - 5.346258075911796 VAR3 - 0.17354535459411866 VAR4 + 0.10886303777294296 VAR5 + 0.3611561850243618 VAR6 + 0.46521712001937476 VAR8 + 0.17235405395891154 VAR10 + 2.9335683498104914 VAR12 - 0.8728143774155122 VAR14 + 0.6217701964349923 VAR16 - 0.9793518189857555 VAR18 - 1.7936396693172065 VAR20 - 0.724326290683274 VAR22 - 0.9905145789398561 VAR24 - 0.20703377417739405 VAR26 + 0.12037225795581409 VAR28 + 0.230525 VAR32 - 1.9756 VAR34 - 0.35029 VAR36 - 0.16023 VAR38 >= -3.463820877094803
 c71: 1 VAR40 - 0.11683028742105783 VAR41 <= 0
 c72: 1 VAR40 >= 0
 c73: 1 VAR42 + 0.0588884 VAR30 + 0.6683896048808322 VAR1 - 2.007181726988374 VAR2 + 1.7044313990441873 VAR3 - 0.03869619106824054 VAR4 - 0.03069050370603127 VAR5 + 0.5450682335939762 VAR6 - 0.33219699768299266 VAR8 + 0.36065313974939206 VAR10 - 1.3358459670755647 VAR12 + 0.22294623790865312 VAR14 - 0.04427324759524712 VAR16 + 0.17174721570587537 VAR18 + 0.6533484994363788 VAR20 - 0.2656161465545399 VAR22 - 0.14530595524379997 VAR24 + 0.5262618100167 VAR26 - 0.04922088979555997 VAR28 + 0.0912621 VAR32 - 0.409804 VAR34 + 0.965811 VAR36 - 0.341368 VAR38 + 0.3750664841457747 VAR43 <= 0.873249031997021
 c74: 1 VAR42 + 0.0588884 VAR30 + 0.6683896048808322 VAR1 - 2.007181726988374 VAR2 + 1.7044313990441873 VAR3 - 0.03869619106824054 VAR4 - 0.03069050370603127 VAR5 + 0.5450682335939762 VAR6 - 0.33219699768299266 VAR8 + 0.36065313974939206 VAR10 - 1.3358459670755647 VAR12 + 0.22294623790865312 VAR14 - 0.04427324759524712 VAR16 + 0.17174721570587537 VAR18 + 0.6533484994363788 VAR20 - 0.2656161465545399 VAR22 - 0.14530595524379997 VAR24 + 0.5262618100167 VAR26 - 0.04922088979555997 VAR28 + 0.0912621 VAR32 - 0.409804 VAR34 + 0.965811 VAR36 - 0.341368 VAR38 >= 0.49818254785124627
 c75: 1 VAR42 - 0.018829496822413416 VAR43 <= 0
 c76: 1 VAR42 >= 0
 c77: 1 VAR44 + 0.0147007 VAR30 + 0.6425668660609287 VAR1 - 2.5893846525643074 VAR2 + 1.3692407942137546 VAR3 - 0.1440992469541585 VAR4 + 0.10249701221884808 VAR5 + 0.2301638187847368 VAR6 + 0.15509095216645832 VAR8 + 0.7371382917827349 VAR10 - 1.5572014215999666 VAR12 + 0.28944837004292173 VAR14 + 0.06632738573582338 VAR16 + 0.2604202385996984 VAR18 - 0.5807447984819474 VAR20 + 0.04329372844721998 VAR22 - 0.08763591536617998 VAR24 + 0.09965986380326 VAR26 + 0.07947513678809004 VAR28 + 0.197789 VAR32 - 0.12263 VAR34 - 0.244268 VAR36 + 0.0966258 VAR38 + 0.2300844536753689 VAR45 <= 0.6865632600361523
 c78: 1 VAR44 + 0.0147007 VAR30 + 0.6425668660609287 VAR1 - 2.5893846525643074 VAR2 + 1.3692407942137546 VAR3 - 0.1440992469541585 VAR4 + 0.10249701221884808 VAR5 + 0.2301638187847368 VAR6 + 0.15509095216645832 VAR8 + 0.7371382917827349 VAR10 - 1.5572014215999666 VAR12 + 0.28944837004292173 VAR14 + 0.06632738573582338 VAR16 + 0.2604202385996984 VAR18 - 0.5807447984819474 VAR20 + 0.04329372844721998 VAR22 - 0.08763591536617998 VAR24 + 0.09965986380326 VAR26 + 0.07947513678809004 VAR28 + 0.197789 VAR32 - 0.12263 VAR34 - 0.244268 VAR36 + 0.0966258 VAR38 >= 0.4564788063607834
 c79: 1 VAR44 - 0.03300866500153876 VAR45 <= 0
 c80: 1 VAR44 >= 0
 c81: 1 VAR46 + 0.266674 VAR30 + 0.42133098319925766 VAR1 - 3.064147606292086 VAR2 + 0.5432329966715285 VAR3 - 0.3554332918305184 VAR4 - 0.3458491022505575 VAR5 + 0.8365085572871059 VAR6 + 0.7356507819384249 VAR8 + 1.2483948373782805 VAR10 + 0.20595295517103038 VAR12 - 0.6244966359497569 VAR14 + 0.3418909561861913 VAR16 - 0.4069131067332118 VAR18 - 0.5940886496734903 VAR20 - 0.8294103682737001 VAR22 + 0.07319742467039997 VAR24 - 0.398280420134 VAR26 - 0.15809112911908 VAR28 + 0.0466279 VAR32 - 0.954231 VAR34 - 0.361731 VAR36 - 0.646383 VAR38 + 0.14012494947945675 VAR47 <= 0.165278806924468
 c82: 1 VAR46 + 0.266674 VAR30 + 0.42133098319925766 VAR1 - 3.064147606292086 VAR2 + 0.5432329966715285 VAR3 - 0.3554332918305184 VAR4 - 0.3458491022505575 VAR5 + 0.8365085572871059 VAR6 + 0.7356507819384249 VAR8 + 1.2483948373782805 VAR10 + 0.20595295517103038 VAR12 - 0.6244966359497569 VAR14 + 0.3418909561861913 VAR16 - 0.4069131067332118 VAR18 - 0.5940886496734903 VAR20 - 0.8294103682737001 VAR22 + 0.07319742467039997 VAR24 - 0.398280420134 VAR26 - 0.15809112911908 VAR28 + 0.0466279 VAR32 - 0.954231 VAR34 - 0.361731 VAR36 - 0.646383 VAR38 >= 0.025153857445011238
 c83: 1 VAR46 - 0.2191174033306808 VAR47 <= 0
 c84: 1 VAR46 >= 0
 c85: 1 VAR48 + 0.474 VAR30 - 0.858189104163842 VAR1 - 2.682869584352236 VAR2 + 1.3142391226311747 VAR3 - 0.018312829378045556 VAR4 - 0.5950366653540344 VAR5 + 0.49637339666398794 VAR6 + 0.2546259888309095 VAR8 + 0.4192389419401763 VAR10 + 0.34488314413524174 VAR12 - 1.2021805579697076 VAR14 + 0.12145817732040289 VAR16 - 0.31275896589091895 VAR18 + 0.7966116405860403 VAR20 - 1.1807016560102421 VAR22 + 0.8010450167385199 VAR24 - 0.34153606536079006 VAR26 - 0.7807315159385 VAR28 + 0.282197 VAR32 - 0.843902 VAR34 + 0.37843 VAR36 - 0.394789 VAR38 + 0.3674969763479067 VAR49 <= 0.9949051898591114
 c86: 1 VAR48 + 0.474 VAR30 - 0.858189104163842 VAR1 - 2.682869584352236 VAR2 + 1.3142391226311747 VAR3 - 0.018312829378045556 VAR4 - 0.5950366653540344 VAR5 + 0.49637339666398794 VAR6 + 0.2546259888309095 VAR8 + 0.4192389419401763 VAR10 + 0.34488314413524174 VAR12 - 1.2021805579697076 VAR14 + 0.12145817732040289 VAR16 - 0.31275896589091895 VAR18 + 0.7966116405860403 VAR20 - 1.1807016560102421 VAR22 + 0.8010450167385199 VAR24 - 0.34153606536079006 VAR26 - 0.7807315159385 VAR28 + 0.282197 VAR32 - 0.843902 VAR34 + 0.37843 VAR36 - 0.394789 VAR38 >= 0.6274082135112047
 c87: 1 VAR48 - 0.06655978198703105 VAR49 <= 0
 c88: 1 VAR48 >= 0
 c89: 1 VAR50 - 0.139143 VAR30 + 0.4511226731423537 VAR1 - 4.465817356172257 VAR2 + 2.433599456367837 VAR3 - 0.15118090761727582 VAR4 - 0.21527091986689015 VAR5 + 0.05693236681290489 VAR6 - 0.0016122447706615108 VAR8 + 0.42518449977120953 VAR10 - 0.7295349788382808 VAR12 + 0.07937500250457226 VAR14 + 0.015281653465959204 VAR16 + 0.3642248470355667 VAR18 + 0.4086612063804628 VAR20 + 0.23379140119993 VAR22 + 0.21698663042982003 VAR24 - 0.22297634348225 VAR26 + 0.05821938647777001 VAR28 - 0.0956998 VAR32 - 0.222578 VAR34 - 0.108302 VAR36 - 0.176415 VAR38 + 0.026634858748641355 VAR51 <= 1.1065596027046882
 c90: 1 VAR50 - 0.139143 VAR30 + 0.4511226731423537 VAR1 - 4.465817356172257 VAR2 + 2.433599456367837 VAR3 - 0.15118090761727582 VAR4 - 0.21527091986689015 VAR5 + 0.05693236681290489 VAR6 - 0.0016122447706615108 VAR8 + 0.42518449977120953 VAR10 - 0.7295349788382808 VAR12 + 0.07937500250457226 VAR14 + 0.015281653465959204 VAR16 + 0.3642248470355667 VAR18 + 0.4086612063804628 VAR20 + 0.23379140119993 VAR22 + 0.21698663042982003 VAR24 - 0.22297634348225 VAR26 + 0.05821938647777001 VAR28 - 0.0956998 VAR32 - 0.222578 VAR34 - 0.108302 VAR36 - 0.176415 VAR38 >= 1.0799247439560469
 c91: 1 VAR50 - 0.181833957384115 VAR51 <= 0
 c92: 1 VAR50 >= 0
 c93: 1 VAR52 + 0.20307132040821999 VAR30 + 0.663165346798487 VAR1 - 0.048321244801844604 VAR2 - 0.33118397660394816 VAR3 - 0.2869540342281444 VAR4 - 0.09455251924642619 VAR5 + 0.07705739359544003 VAR6 - 0.060734241571812 VAR8 + 0.04496795725597145 VAR10 - 0.044995489884505635 VAR12 + 0.10168935680472338 VAR14 - 0.1629585156488081 VAR16 + 0.3124080047900972 VAR18 + 0.17034170299186382 VAR20 + 0.037510010869804516 VAR22 + 0.3760689931077621 VAR24 - 0.0005497470803391448 VAR26 - 0.3463147633839753 VAR28 + 0.08635598971512001 VAR32 - 0.8547531360504201 VAR34 + 0.10606865571802099 VAR36 - 0.016138427777302018 VAR38 + 0.23021 VAR40 - 0.217323 VAR42 + 0.136429 VAR44 - 0.0167542 VAR46 + 0.254384 VAR48 + 0.151549 VAR50 + 0.025355925232102394 VAR53 <= -0.36578286049340175
 c94: 1 VAR52 + 0.20307132040821999 VAR30 + 0.663165346798487 VAR1 - 0.048321244801844604 VAR2 - 0.33118397660394816 VAR3 - 0.2869540342281444 VAR4 - 0.09455251924642619 VAR5 + 0.07705739359544003 VAR6 - 0.060734241571812 VAR8 + 0.04496795725597145 VAR10 - 0.044995489884505635 VAR12 + 0.10168935680472338 VAR14 - 0.1629585156488081 VAR16 + 0.3124080047900972 VAR18 + 0.17034170299186382 VAR20 + 0.037510010869804516 VAR22 + 0.3760689931077621 VAR24 - 0.0005497470803391448 VAR26 - 0.3463147633839753 VAR28 + 0.08635598971512001 VAR32 - 0.8547531360504201 VAR34 + 0.10606865571802099 VAR36 - 0.016138427777302018 VAR38 + 0.23021 VAR40 - 0.217323 VAR42 + 0.136429 VAR44 - 0.0167542 VAR46 + 0.254384 VAR48 + 0.151549 VAR50 >= -0.39113878572550415
 c95: 1 VAR52 - 0.1455658800546818 VAR53 <= 0
 c96: 1 VAR52 >= 0
 c97: 1 VAR54 + 0.20373989171519993 VAR30 - 0.6978521436475922 VAR1 - 2.5206815186013842 VAR2 + 1.0899464639658503 VAR3 - 0.3698419314454836 VAR4 - 0.4416838618623439 VAR5 - 0.26767613532356227 VAR6 + 0.1474830697807465 VAR8 + 0.5030610195262517 VAR10 - 0.9013724288622968 VAR12 + 0.3758715243762315 VAR14 - 0.1642610135330128 VAR16 + 0.8996301677477734 VAR18 + 1.3839073158543618 VAR20 + 0.37450608516684125 VAR22 + 0.8982033478072216 VAR24 - 0.27043011977544457 VAR26 - 0.5868785020329793 VAR28 + 0.11423367977122004 VAR32 - 0.35149627450591003 VAR34 + 0.10879069799935 VAR36 + 0.219921589929862 VAR38 + 0.345235 VAR40 + 0.656499 VAR42 - 0.113479 VAR44 - 0.134393 VAR46 - 0.222645 VAR48 - 0.2278 VAR50 + 0.19116155229321763 VAR55 <= 0.7695617727350015
 c98: 1 VAR54 + 0.20373989171519993 VAR30 - 0.6978521436475922 VAR1 - 2.5206815186013842 VAR2 + 1.0899464639658503 VAR3 - 0.3698419314454836 VAR4 - 0.4416838618623439 VAR5 - 0.26767613532356227 VAR6 + 0.1474830697807465 VAR8 + 0.5030610195262517 VAR10 - 0.9013724288622968 VAR12 + 0.3758715243762315 VAR14 - 0.1642610135330128 VAR16 + 0.8996301677477734 VAR18 + 1.3839073158543618 VAR20 + 0.37450608516684125 VAR22 + 0.8982033478072216 VAR24 - 0.27043011977544457 VAR26 - 0.5868785020329793 VAR28 + 0.11423367977122004 VAR32 - 0.35149627450591003 VAR34 + 0.10879069799935 VAR36 + 0.219921589929862 VAR38 + 0.345235 VAR40 + 0.656499 VAR42 - 0.113479 VAR44 - 0.134393 VAR46 - 0.222645 VAR48 - 0.2278 VAR50 >= 0.5784002204417839
 c99: 1 VAR54 - 0.15431133813740128 VAR55 <= 0
 c100: 1 VAR54 >= 0
 c101: 1 VAR56 - 0.08900388349648 VAR30 - 0.23684653463259006 VAR1 - 0.9490498271700459 VAR2 + 0.681894302490787 VAR3 + 0.06146001145975854 VAR4 + 0.023994542493696855 VAR5 - 0.07078664171714175 VAR6 + 0.04579020967781534 VAR8 + 0.09624132440354197 VAR10 - 0.11886960031842012 VAR12 + 0.16496780261315286 VAR14 - 0.04635980388193312 VAR16 - 0.08586913093482831 VAR18 - 0.15760976204425944 VAR20 + 0.10636792230890325 VAR22 - 0.0687474761046605 VAR24 - 0.0338542273806487 VAR26 + 0.1478528465348435 VAR28 - 0.07990117953435 VAR32 + 0.38296771330372004 VAR34 - 0.021432056835567002 VAR36 + 0.11722337085479999 VAR38 + 0.32334 VAR40 + 0.00238749 VAR42 + 0.0399714 VAR44 + 0.0654989 VAR46 - 0.00132811 VAR48 + 0.399533 VAR50 + 0.09668909221335226 VAR57 <= 0.5566610299835991
 c102: 1 VAR56 - 0.08900388349648 VAR30 - 0.23684653463259006 VAR1 - 0.9490498271700459 VAR2 + 0.681894302490787 VAR3 + 0.06146001145975854 VAR4 + 0.023994542493696855 VAR5 - 0.07078664171714175 VAR6 + 0.04579020967781534 VAR8 + 0.09624132440354197 VAR10 - 0.11886960031842012 VAR12 + 0.16496780261315286 VAR14 - 0.04635980388193312 VAR16 - 0.08586913093482831 VAR18 - 0.15760976204425944 VAR20 + 0.10636792230890325 VAR22 - 0.0687474761046605 VAR24 - 0.0338542273806487 VAR26 + 0.1478528465348435 VAR28 - 0.07990117953435 VAR32 + 0.38296771330372004 VAR34 - 0.021432056835567002 VAR36 + 0.11722337085479999 VAR38 + 0.32334 VAR40 + 0.00238749 VAR42 + 0.0399714 VAR44 + 0.0654989 VAR46 - 0.00132811 VAR48 + 0.399533 VAR50 >= 0.45997193777024686
 c103: 1 VAR56 - 0.02554624882066414 VAR57 <= 0
 c104: 1 VAR56 >= 0
 c105: 1 VAR58 - 0.04182544551049999 VAR30 + 0.5610032424731484 VAR1 + 3.1212296773343318 VAR2 - 2.1332662097590656 VAR3 - 0.029424101426539513 VAR4 - 0.05891728509496234 VAR5 - 0.10265814625036146 VAR6 + 0.08289069605858934 VAR8 - 0.2456665071974054 VAR10 + 1.2209277458043073 VAR12 - 0.2999021629148069 VAR14 + 0.030996369341348615 VAR16 - 0.3540117827013479 VAR18 - 0.567861706416187 VAR20 - 0.21716448848538833 VAR22 - 0.04753809614282842 VAR24 - 0.18289623850132905 VAR26 - 0.09091540829173352 VAR28 + 0.07940928835790004 VAR32 - 0.1659882085481 VAR34 - 0.015653178444169993 VAR36 + 0.15196799732368 VAR38 + 0.721342 VAR40 + 0.292888 VAR42 - 0.352114 VAR44 + 0.119077 VAR46 + 0.122853 VAR48 + 0.132822 VAR50 + 0.11491285375360571 VAR59 <= -1.144088798305514
 c106: 1 VAR58 - 0.04182544551049999 VAR30 + 0.5610032424731484 VAR1 + 3.1212296773343318 VAR2 - 2.1332662097590656 VAR3 - 0.029424101426539513 VAR4 - 0.05891728509496234 VAR5 - 0.10265814625036146 VAR6 + 0.08289069605858934 VAR8 - 0.2456665071974054 VAR10 + 1.2209277458043073 VAR12 - 0.2999021629148069 VAR14 + 0.030996369341348615 VAR16 - 0.3540117827013479 VAR18 - 0.567861706416187 VAR20 - 0.21716448848538833 VAR22 - 0.04753809614282842 VAR24 - 0.18289623850132905 VAR26 - 0.09091540829173352 VAR28 + 0.07940928835790004 VAR32 - 0.1659882085481 VAR34 - 0.015653178444169993 VAR36 + 0.15196799732368 VAR38 + 0.721342 VAR40 + 0.292888 VAR42 - 0.352114 VAR44 + 0.119077 VAR46 + 0.122853 VAR48 + 0.132822 VAR50 >= -1.2590016520591196
 c107: 1 VAR58 - 0.1563718880692888 VAR59 <= 0
 c108: 1 VAR58 >= 0
 c109: 1 VAR60 + 0.2689010516775 VAR30 + 7.057550696687685 VAR1 - 7.895857040941269 VAR2 + 1.9222268738129022 VAR3 - 1.8289144050619917 VAR4 - 0.4311966612223693 VAR5 + 0.4527926806302228 VAR6 + 1.7271172973947637 VAR8 + 2.229479515459146 VAR10 - 3.2669289048115933 VAR12 + 2.3156819862557523 VAR14 - 1.089270013894034 VAR16 + 1.441928732295737 VAR18 - 3.6541698662192745 VAR20 + 0.8453404344971106 VAR22 + 1.898427468433016 VAR24 - 0.9019208968245422 VAR26 - 0.8440871861580603 VAR28 + 0.2646802261986 VAR32 - 0.43641631618209986 VAR34 - 0.10990979379798001 VAR36 + 0.2403874826442 VAR38 + 2.0999 VAR40 - 0.93929 VAR42 - 0.0212991 VAR44 - 0.485476 VAR46 + 0.329333 VAR48 - 0.643938 VAR50 + 0.17586779227931681 VAR61 <= -1.0248452953762845
 c110: 1 VAR60 + 0.2689010516775 VAR30 + 7.057550696687685 VAR1 - 7.895857040941269 VAR2 + 1.9222268738129022 VAR3 - 1.8289144050619917 VAR4 - 0.4311966612223693 VAR5 + 0.4527926806302228 VAR6 + 1.7271172973947637 VAR8 + 2.229479515459146 VAR10 - 3.2669289048115933 VAR12 + 2.3156819862557523 VAR14 - 1.089270013894034 VAR16 + 1.441928732295737 VAR18 - 3.6541698662192745 VAR20 + 0.8453404344971106 VAR22 + 1.898427468433016 VAR24 - 0.9019208968245422 VAR26 - 0.8440871861580603 VAR28 + 0.2646802261986 VAR32 - 0.43641631618209986 VAR34 - 0.10990979379798001 VAR36 + 0.2403874826442 VAR38 + 2.0999 VAR40 - 0.93929 VAR42 - 0.0212991 VAR44 - 0.485476 VAR46 + 0.329333 VAR48 - 0.643938 VAR50 >= -1.2007130876556014
 c111: 1 VAR60 - 0.9089832713341512 VAR61 <= 0
 c112: 1 VAR60 >= 0
 c113: 1 VAR62 - 0.24617998351267492 VAR30 - 2.2461581129289976 VAR1 - 0.6076772154014524 VAR2 + 1.4456891038079251 VAR3 + 0.11802262538584964 VAR4 + 0.3304678192524188 VAR5 - 0.020901542707268166 VAR6 - 0.27021789526102546 VAR8 - 0.47001117437035456 VAR10 - 0.3212718177600676 VAR12 - 0.1575185286231571 VAR14 + 0.1896331567187825 VAR16 + 0.5799385615608268 VAR18 + 2.8118861250020024 VAR20 + 0.32385981429332356 VAR22 - 0.20902836335566805 VAR24 + 0.21188164694407555 VAR26 + 0.16882691461429483 VAR28 - 0.23444220283397496 VAR32 + 0.8390918171746949 VAR34 + 0.19785392256719994 VAR36 + 0.24126044527753002 VAR38 + 1.80716 VAR40 + 0.462319 VAR42 + 0.324942 VAR44 - 0.0623225 VAR46 + 0.149899 VAR48 - 0.386196 VAR50 + 0.3019503875176477 VAR63 <= 1.823974927787704
 c114: 1 VAR62 - 0.24617998351267492 VAR30 - 2.2461581129289976 VAR1 - 0.6076772154014524 VAR2 + 1.4456891038079251 VAR3 + 0.11802262538584964 VAR4 + 0.3304678192524188 VAR5 - 0.020901542707268166 VAR6 - 0.27021789526102546 VAR8 - 0.47001117437035456 VAR10 - 0.3212718177600676 VAR12 - 0.1575185286231571 VAR14 + 0.1896331567187825 VAR16 + 0.5799385615608268 VAR18 + 2.8118861250020024 VAR20 + 0.32385981429332356 VAR22 - 0.20902836335566805 VAR24 + 0.21188164694407555 VAR26 + 0.16882691461429483 VAR28 - 0.23444220283397496 VAR32 + 0.8390918171746949 VAR34 + 0.19785392256719994 VAR36 + 0.24126044527753002 VAR38 + 1.80716 VAR40 + 0.462319 VAR42 + 0.324942 VAR44 - 0.0623225 VAR46 + 0.149899 VAR48 - 0.386196 VAR50 >= 1.5220245402700563
 c115: 1 VAR62 - 0.1475216733079161 VAR63 <= 0
 c116: 1 VAR62 >= 0
 c117: 1 VAR64 + 0.028479138598100005 VAR30 + 2.377360752833852 VAR1 + 0.4511262590758218 VAR2 - 1.0578297983110003 VAR3 - 0.23386350948753748 VAR4 + 0.028579495631456484 VAR5 + 0.33959002087444734 VAR6 + 0.21716148837753432 VAR8 + 0.24916778606843826 VAR10 + 0.321149809904106 VAR12 + 0.15609081863864865 VAR14 - 0.21177823795350667 VAR16 - 0.36844051150865387 VAR18 - 1.9502369956784227 VAR20 - 0.2035700501690484 VAR22 - 0.07884743989319583 VAR24 - 0.05273296442719456 VAR26 + 0.046892676397105856 VAR28 + 0.014020498121699983 VAR32 - 0.444446771583995 VAR34 + 0.06040994006863 VAR36 - 0.22890375096631993 VAR38 + 0.530512 VAR40 - 0.227734 VAR42 - 0.369131 VAR44 - 0.0857285 VAR46 + 0.0425825 VAR48 + 0.100277 VAR50 + 0.16421139103512283 VAR65 <= -1.203055797550058
 c118: 1 VAR64 + 0.028479138598100005 VAR30 + 2.377360752833852 VAR1 + 0.4511262590758218 VAR2 - 1.0578297983110003 VAR3 - 0.23386350948753748 VAR4 + 0.028579495631456484 VAR5 + 0.33959002087444734 VAR6 + 0.21716148837753432 VAR8 + 0.24916778606843826 VAR10 + 0.321149809904106 VAR12 + 0.15609081863864865 VAR14 - 0.21177823795350667 VAR16 - 0.36844051150865387 VAR18 - 1.9502369956784227 VAR20 - 0.2035700501690484 VAR22 - 0.07884743989319583 VAR24 - 0.05273296442719456 VAR26 + 0.046892676397105856 VAR28 + 0.014020498121699983 VAR32 - 0.444446771583995 VAR34 + 0.06040994006863 VAR36 - 0.22890375096631993 VAR38 + 0.530512 VAR40 - 0.227734 VAR42 - 0.369131 VAR44 - 0.0857285 VAR46 + 0.0425825 VAR48 + 0.100277 VAR50 >= -1.3672671885851808
 c119: 1 VAR64 - 0.06601947923119256 VAR65 <= 0
 c120: 1 VAR64 >= 0
 c121: 1 VAR66 - 0.18296034955340001 VAR30 + 3.388671570294777 VAR1 - 0.8550348754767892 VAR2 + 0.02530225434943123 VAR3 - 0.0876349638347205 VAR4 + 0.09053127473798031 VAR5 + 0.383553141406874 VAR6 + 0.22623496294799905 VAR8 + 0.18512585009672547 VAR10 + 0.07047902086587607 VAR12 + 0.44546927230639205 VAR14 - 0.4378429854541923 VAR16 - 0.46821642774097555 VAR18 - 2.572252407330882 VAR20 - 0.033678026196634514 VAR22 - 0.36003687053367034 VAR24 - 0.028533664849293518 VAR26 + 0.3824022362210306 VAR28 - 0.07177838603789999 VAR32 + 0.8003468949129 VAR34 + 0.2403694534887 VAR36 - 0.24513929937179996 VAR38 + 0.112859 VAR40 - 0.0353471 VAR42 - 0.0156751 VAR44 + 0.0200691 VAR46 - 0.170035 VAR48 - 0.00428274 VAR50 + 0.09199206199107157 VAR67 <= -0.8607716433780525
 c122: 1 VAR66 - 0.18296034955340001 VAR30 + 3.388671570294777 VAR1 - 0.8550348754767892 VAR2 + 0.02530225434943123 VAR3 - 0.0876349638347205 VAR4 + 0.09053127473798031 VAR5 + 0.383553141406874 VAR6 + 0.22623496294799905 VAR8 + 0.18512585009672547 VAR10 + 0.07047902086587607 VAR12 + 0.44546927230639205 VAR14 - 0.4378429854541923 VAR16 - 0.46821642774097555 VAR18 - 2.572252407330882 VAR20 - 0.033678026196634514 VAR22 - 0.36003687053367034 VAR24 - 0.028533664849293518 VAR26 + 0.3824022362210306 VAR28 - 0.07177838603789999 VAR32 + 0.8003468949129 VAR34 + 0.2403694534887 VAR36 - 0.24513929937179996 VAR38 + 0.112859 VAR40 - 0.0353471 VAR42 - 0.0156751 VAR44 + 0.0200691 VAR46 - 0.170035 VAR48 - 0.00428274 VAR50 >= -0.952763705369124
 c123: 1 VAR66 - 0.26512425362705994 VAR67 <= 0
 c124: 1 VAR66 >= 0
 c125: 1 VAR68 + 0.0061851142296153955 VAR30 + 0.4333796901075922 VAR1 + 0.09976407133608012 VAR2 - 0.1717171921730749 VAR3 - 0.048713762515579 VAR4 - 0.006558331954231666 VAR5 + 0.01972674806877013 VAR6 + 0.012860791185780169 VAR8 + 0.014635094850258093 VAR10 + 0.043164659404083004 VAR12 + 0.050660981334371004 VAR14 - 0.05375907892749305 VAR16 - 0.028020688609824596 VAR18 - 0.31080714789927893 VAR20 - 0.007862509559647096 VAR22 + 0.029460327545617275 VAR24 - 0.02091024771924691 VAR26 - 0.021853269466576022 VAR28 + 0.01599396525574738 VAR32 - 0.02785367593253866 VAR34 + 0.019104033251309716 VAR36 - 0.007654771396278679 VAR38 + 0.023442461754199992 VAR40 + 0.028969087845459998 VAR42 - 0.0002660265406579966 VAR44 - 0.016539892202689997 VAR46 - 0.0022794984312799974 VAR48 - 0.034752308807139996 VAR50 + 0.030912 VAR52 + 0.0347493 VAR54 + 0.0465544 VAR56 + 0.00918728 VAR58 - 785175e-9 VAR60 + 0.00381977 VAR62 - 0.00124126 VAR64 + 0.0418875 VAR66 + 0.0015802141708350925 VAR69 <= -0.21864221863295458
 c126: 1 VAR68 + 0.0061851142296153955 VAR30 + 0.4333796901075922 VAR1 + 0.09976407133608012 VAR2 - 0.1717171921730749 VAR3 - 0.048713762515579 VAR4 - 0.006558331954231666 VAR5 + 0.01972674806877013 VAR6 + 0.012860791185780169 VAR8 + 0.014635094850258093 VAR10 + 0.043164659404083004 VAR12 + 0.050660981334371004 VAR14 - 0.05375907892749305 VAR16 - 0.028020688609824596 VAR18 - 0.31080714789927893 VAR20 - 0.007862509559647096 VAR22 + 0.029460327545617275 VAR24 - 0.02091024771924691 VAR26 - 0.021853269466576022 VAR28 + 0.01599396525574738 VAR32 - 0.02785367593253866 VAR34 + 0.019104033251309716 VAR36 - 0.007654771396278679 VAR38 + 0.023442461754199992 VAR40 + 0.028969087845459998 VAR42 - 0.0002660265406579966 VAR44 - 0.016539892202689997 VAR46 - 0.0022794984312799974 VAR48 - 0.034752308807139996 VAR50 + 0.030912 VAR52 + 0.0347493 VAR54 + 0.0465544 VAR56 + 0.00918728 VAR58 - 785175e-9 VAR60 + 0.00381977 VAR62 - 0.00124126 VAR64 + 0.0418875 VAR66 >= -0.22022243280378967
 c127: 1 VAR68 - 0.02139187432867165 VAR69 <= 0
 c128: 1 VAR68 >= 0
 c129: 1 VAR70 - 0.00932579 VAR68 >= 0.0187461
 c130: 1 VAR70 - 0.0106159 VAR68 >= 0.0188528
 c131: 1 VAR70 - 0.0280229 VAR68 >= 0.0175962
 c132: 1 VAR70 - 0.0290545 VAR68 >= 0.0175571
 c133: 1 VAR71 + 1 VAR70 + 0.0034473 VAR68 = 0.0203547
Bounds
 -0.30353115613746867 <= VAR1 <= -0.29855281193475053
 -0.009549296585513092 <= VAR2 <= 0.009549296585513092
 0.4933803235848431 <= VAR3 <= 0.5000000551328638
 0.3 <= VAR4 <= 0.5
 0.3 <= VAR5 <= 0.5
 0 <= VAR6 <= 0.09278415086751646
 0 <= VAR7 <= 1
 0 <= VAR8 <= 0.04795707027888699
 0 <= VAR9 <= 1
 0 <= VAR10 <= 0.1927812183224658
 0 <= VAR11 <= 1
 0 <= VAR12 <= 0.011925805398723344
 0 <= VAR13 <= 1
 0 <= VAR14 <= 0.1039887747599636
 0 <= VAR15 <= 1
 0 <= VAR16 <= 0.21811130479903781
 0 <= VAR17 <= 1
 0 <= VAR18 <= 0.045894853348493886
 0 <= VAR19 <= 1
 0 <= VAR20 <= 0.005760564044675315
 0 <= VAR21 <= 1
 0 <= VAR22 <= 0.049268267664144494
 0 <= VAR23 <= 1
 0 <= VAR24 <= 0.3762225255416034
 0 <= VAR25 <= 1
 0 <= VAR26 <= 0.016603038419142013
 0 <= VAR27 <= 1
 0 <= VAR28 <= 0.20837353938977965
 0 <= VAR29 <= 1
 0 <= VAR30 <= 0.13358496537116948
 0 <= VAR31 <= 1
 0 <= VAR32 <= 0.06103950011612036
 0 <= VAR33 <= 1
 0 <= VAR34 <= 0.02851866974834527
 0 <= VAR35 <= 1
 0 <= VAR36 <= 0.11223365466798185
 0 <= VAR37 <= 1
 0 <= VAR38 <= 0.1331375478554453
 0 <= VAR39 <= 1
 0 <= VAR40 <= 0.11683028742105783
 0 <= VAR41 <= 1
 0 <= VAR42 <= 0.018829496822413416
 0 <= VAR43 <= 1
 0 <= VAR44 <= 0.03300866500153876
 0 <= VAR45 <= 1
 0 <= VAR46 <= 0.2191174033306808
 0 <= VAR47 <= 1
 0 <= VAR48 <= 0.06655978198703105
 0 <= VAR49 <= 1
 0 <= VAR50 <= 0.181833957384115
 0 <= VAR51 <= 1
 0 <= VAR52 <= 0.1455658800546818
 0 <= VAR53 <= 1
 0 <= VAR54 <= 0.15431133813740128
 0 <= VAR55 <= 1
 0 <= VAR56 <= 0.02554624882066414
 0 <= VAR57 <= 1
 0 <= VAR58 <= 0.1563718880692888
 0 <= VAR59 <= 1
 0 <= VAR60 <= 0.9089832713341512
 0 <= VAR61 <= 1
 0 <= VAR62 <= 0.1475216733079161
 0 <= VAR63 <= 1
 0 <= VAR64 <= 0.06601947923119256
 0 <= VAR65 <= 1
 0 <= VAR66 <= 0.26512425362705994
 0 <= VAR67 <= 1
 0 <= VAR68 <= 0.02139187432867165
 0 <= VAR69 <= 1
 VAR70 free
 VAR71 free
General
 VAR7
 VAR9
 VAR11
 VAR13
 VAR15
 VAR17
 VAR19
 VAR21
 VAR23
 VAR25
 VAR27
 VAR29
 VAR31
 VAR33
 VAR35
 VAR37
 VAR39
 VAR41
 VAR43
 VAR45
 VAR47
 VAR49
 VAR51
 VAR53
 VAR55
 VAR57
 VAR59
 VAR61
 VAR63
 VAR65
 VAR67
 VAR69
End
